p edge 265 264 118
e 1 89
e 1 247
e 1 53
e 2 70
e 2 65
e 3 96
e 3 255
e 3 220
e 4 233
e 5 109
e 5 143
e 6 49
e 6 259
e 7 237
e 7 184
e 8 79
e 8 202
e 8 261
e 9 117
e 9 133
e 10 220
e 11 154
e 11 106
e 12 227
e 13 205
e 13 167
e 14 228
e 15 112
e 15 155
e 15 169
e 16 218
e 17 109
e 18 125
e 18 138
e 18 220
e 19 261
e 19 22
e 20 72
e 20 31
e 21 136
e 21 86
e 22 43
e 23 69
e 23 43
e 24 190
e 24 88
e 25 113
e 25 237
e 26 257
e 27 110
e 27 225
e 28 41
e 29 179
e 29 149
e 29 75
e 30 68
e 30 152
e 31 184
e 31 111
e 32 251
e 33 157
e 33 97
e 34 215
e 34 242
e 35 54
e 36 185
e 36 211
e 36 117
e 37 71
e 37 140
e 38 175
e 39 230
e 40 45
e 41 162
e 41 203
e 41 88
e 42 101
e 42 104
e 43 159
e 43 53
e 43 265
e 44 195
e 45 250
e 45 55
e 46 188
e 46 49
e 47 145
e 48 54
e 48 89
e 49 213
e 50 217
e 51 207
e 52 95
e 54 134
e 55 57
e 56 220
e 57 163
e 58 68
e 59 166
e 59 73
e 60 139
e 61 257
e 61 192
e 62 98
e 63 173
e 63 251
e 63 72
e 64 132
e 64 181
e 64 215
e 65 122
e 65 105
e 66 238
e 67 232
e 70 91
e 70 145
e 72 81
e 73 225
e 73 244
e 74 156
e 74 247
e 75 167
e 75 92
e 76 228
e 76 219
e 77 222
e 77 78
e 78 249
e 78 160
e 80 148
e 81 236
e 82 161
e 83 251
e 84 142
e 84 93
e 85 141
e 86 255
e 87 253
e 88 238
e 88 221
e 89 102
e 90 230
e 92 165
e 92 121
e 93 123
e 93 258
e 94 105
e 94 188
e 95 259
e 95 107
e 96 189
e 96 108
e 97 240
e 98 137
e 98 240
e 98 107
e 99 141
e 99 206
e 100 234
e 102 241
e 102 254
e 103 175
e 104 195
e 105 124
e 106 260
e 107 203
e 108 196
e 111 195
e 111 170
e 114 160
e 114 211
e 115 222
e 116 182
e 118 158
e 119 258
e 119 193
e 120 183
e 120 247
e 121 232
e 121 133
e 121 226
e 122 252
e 124 147
e 124 220
e 125 152
e 125 199
e 126 127
e 126 251
e 128 138
e 129 245
e 129 191
e 130 176
e 130 133
e 131 244
e 131 148
e 135 175
e 136 219
e 137 242
e 137 191
e 138 169
e 139 206
e 140 231
e 142 207
e 143 209
e 144 201
e 146 175
e 148 243
e 148 223
e 149 174
e 149 263
e 150 248
e 151 171
e 153 263
e 155 246
e 156 186
e 158 182
e 158 193
e 158 183
e 159 248
e 161 175
e 161 251
e 162 253
e 163 179
e 164 198
e 166 180
e 166 264
e 168 235
e 168 199
e 170 188
e 171 211
e 172 212
e 172 223
e 172 256
e 175 218
e 177 188
e 178 253
e 181 194
e 181 214
e 187 204
e 187 260
e 187 240
e 192 238
e 197 219
e 198 233
e 198 238
e 199 217
e 200 242
e 201 227
e 201 255
e 202 221
e 204 229
e 205 262
e 205 256
e 206 253
e 208 254
e 209 255
e 210 253
e 213 234
e 215 239
e 216 229
e 221 230
e 224 225
e 226 261
e 231 252
